p edge 30 116 20
v 1 5
v 1 29
v 2 12 28
v 2 6 16
v 1 25
v 2 11 17
v 2 2 18
v 2 21 30
v 1 27
v 1 10
v 1 4
v 1 23
v 3 7 15 20
v 1 3
v 1 1
v 3 8 13 24
v 1 26
v 1 19
v 2 14 22
v 1 9
e 1 5
e 1 6
e 1 8
e 1 9
e 1 13
e 1 19
e 1 20
e 1 22
e 1 23
e 1 24
e 1 25
e 1 27
e 1 28
e 2 5
e 2 7
e 2 8
e 2 10
e 2 14
e 2 27
e 3 4
e 3 7
e 3 9
e 3 11
e 3 15
e 3 21
e 3 27
e 4 10
e 4 12
e 4 16
e 4 19
e 4 29
e 5 6
e 5 11
e 5 17
e 5 18
e 5 22
e 5 23
e 5 27
e 5 29
e 5 30
e 6 11
e 6 16
e 6 17
e 6 23
e 6 29
e 7 8
e 7 9
e 7 10
e 7 12
e 7 15
e 7 21
e 7 22
e 7 24
e 7 25
e 7 28
e 8 10
e 8 19
e 8 23
e 8 27
e 9 10
e 9 23
e 9 25
e 9 27
e 9 29
e 9 30
e 10 11
e 10 12
e 10 22
e 10 24
e 10 25
e 11 15
e 11 17
e 11 23
e 11 24
e 11 25
e 11 28
e 11 29
e 11 30
e 12 15
e 12 24
e 13 25
e 13 28
e 13 29
e 14 15
e 14 19
e 14 23
e 14 26
e 15 17
e 15 19
e 15 24
e 15 29
e 15 30
e 16 17
e 16 18
e 16 19
e 16 20
e 16 29
e 17 19
e 17 24
e 17 26
e 18 21
e 18 24
e 18 26
e 19 24
e 20 26
e 20 29
e 20 30
e 21 22
e 21 24
e 21 30
e 22 26
e 23 25
e 23 27
e 23 30
e 27 28
e 29 30
